
(set-option :produce-models true)
(set-option :inline-size-limit 10000)

(declare-const var0 String)

(push 1)
(assert (str.in.re var0 (re.* (re.range "\x01" "\xff"))))
(assert (str.in.re var0 (re.++ (re.++ re.begin-anchor ((_ re.capture 1) (re.union (re.++ (re.union (re.range "A" "P") (re.union (re.range "R" "U") (re.union (str.to.re "W") (re.union (str.to.re "Y") (re.union (str.to.re "Z") (re.range "0" "9")))))) (re.++ (re.union (re.range "A" "H") (re.union (re.range "K" "Y") (re.range "0" "9"))) (re.++ (re.opt (re.union (str.to.re "A") (re.union (str.to.re "E") (re.union (str.to.re "H") (re.union (str.to.re "M") (re.union (str.to.re "N") (re.union (str.to.re "P") (re.union (str.to.re "R") (re.union (str.to.re "T") (re.union (str.to.re "V") (re.union (str.to.re "X") (re.union (str.to.re "Y") (re.range "0" "9"))))))))))))) (re.++ (re.opt (re.union (str.to.re "A") (re.union (str.to.re "B") (re.union (str.to.re "E") (re.union (str.to.re "H") (re.union (str.to.re "M") (re.union (str.to.re "N") (re.union (str.to.re "P") (re.union (str.to.re "R") (re.union (str.to.re "V") (re.union (str.to.re "W") (re.union (str.to.re "X") (re.union (str.to.re "Y") (re.range "0" "9")))))))))))))) (re.++ ((_ re.loop 1 2) (str.to.re " ")) (re.++ (re.range "0" "9") ((_ re.loop 0 2) (re.union (str.to.re "A") (re.union (str.to.re "B") (re.union (re.range "D" "H") (re.union (str.to.re "J") (re.union (str.to.re "L") (re.union (re.range "N" "U") (re.range "W" "Z")))))))))))))) (re.++ (str.to.re "G") (re.++ (str.to.re "I") (re.++ (str.to.re "R") (re.++ (str.to.re " ") (re.++ (str.to.re "0") (re.++ (str.to.re "A") (str.to.re "A")))))))))) re.end-anchor)))	; match!==null
(assert (not (str.in.re ((_ str.extract 1) var0 (re.++ (re.++ re.begin-anchor ((_ re.capture 1) (re.union (re.++ (re.union (re.range "A" "P") (re.union (re.range "R" "U") (re.union (str.to.re "W") (re.union (str.to.re "Y") (re.union (str.to.re "Z") (re.range "0" "9")))))) (re.++ (re.union (re.range "A" "H") (re.union (re.range "K" "Y") (re.range "0" "9"))) (re.++ (re.opt (re.union (str.to.re "A") (re.union (str.to.re "E") (re.union (str.to.re "H") (re.union (str.to.re "M") (re.union (str.to.re "N") (re.union (str.to.re "P") (re.union (str.to.re "R") (re.union (str.to.re "T") (re.union (str.to.re "V") (re.union (str.to.re "X") (re.union (str.to.re "Y") (re.range "0" "9"))))))))))))) (re.++ (re.opt (re.union (str.to.re "A") (re.union (str.to.re "B") (re.union (str.to.re "E") (re.union (str.to.re "H") (re.union (str.to.re "M") (re.union (str.to.re "N") (re.union (str.to.re "P") (re.union (str.to.re "R") (re.union (str.to.re "V") (re.union (str.to.re "W") (re.union (str.to.re "X") (re.union (str.to.re "Y") (re.range "0" "9")))))))))))))) (re.++ ((_ re.loop 1 2) (str.to.re " ")) (re.++ (re.range "0" "9") ((_ re.loop 0 2) (re.union (str.to.re "A") (re.union (str.to.re "B") (re.union (re.range "D" "H") (re.union (str.to.re "J") (re.union (str.to.re "L") (re.union (re.range "N" "U") (re.range "W" "Z")))))))))))))) (re.++ (str.to.re "G") (re.++ (str.to.re "I") (re.++ (str.to.re "R") (re.++ (str.to.re " ") (re.++ (str.to.re "0") (re.++ (str.to.re "A") (str.to.re "A")))))))))) re.end-anchor)) (str.to.re "\x00"))))
;match[1]!==null
(assert (str.in.re ((_ str.extract 1) var0 (re.++ (re.++ re.begin-anchor ((_ re.capture 1) (re.union (re.++ (re.union (re.range "A" "P") (re.union (re.range "R" "U") (re.union (str.to.re "W") (re.union (str.to.re "Y") (re.union (str.to.re "Z") (re.range "0" "9")))))) (re.++ (re.union (re.range "A" "H") (re.union (re.range "K" "Y") (re.range "0" "9"))) (re.++ (re.opt (re.union (str.to.re "A") (re.union (str.to.re "E") (re.union (str.to.re "H") (re.union (str.to.re "M") (re.union (str.to.re "N") (re.union (str.to.re "P") (re.union (str.to.re "R") (re.union (str.to.re "T") (re.union (str.to.re "V") (re.union (str.to.re "X") (re.union (str.to.re "Y") (re.range "0" "9"))))))))))))) (re.++ (re.opt (re.union (str.to.re "A") (re.union (str.to.re "B") (re.union (str.to.re "E") (re.union (str.to.re "H") (re.union (str.to.re "M") (re.union (str.to.re "N") (re.union (str.to.re "P") (re.union (str.to.re "R") (re.union (str.to.re "V") (re.union (str.to.re "W") (re.union (str.to.re "X") (re.union (str.to.re "Y") (re.range "0" "9")))))))))))))) (re.++ ((_ re.loop 1 2) (str.to.re " ")) (re.++ (re.range "0" "9") ((_ re.loop 0 2) (re.union (str.to.re "A") (re.union (str.to.re "B") (re.union (re.range "D" "H") (re.union (str.to.re "J") (re.union (str.to.re "L") (re.union (re.range "N" "U") (re.range "W" "Z")))))))))))))) (re.++ (str.to.re "G") (re.++ (str.to.re "I") (re.++ (str.to.re "R") (re.++ (str.to.re " ") (re.++ (str.to.re "0") (re.++ (str.to.re "A") (str.to.re "A")))))))))) re.end-anchor)) (re.++ re.all(re.+ (re.range "a" "z")) re.all) ))
;/[a-z]+/.test(match[1]) == true
(check-sat)
(get-model)
(pop 1)
(push 1)
(assert (str.in.re var0 (re.* (re.range "\x01" "\xff"))))
(assert (str.in.re var0 (re.++ (re.++ re.begin-anchor ((_ re.capture 1) (re.union (re.++ (re.union (re.range "A" "P") (re.union (re.range "R" "U") (re.union (str.to.re "W") (re.union (str.to.re "Y") (re.union (str.to.re "Z") (re.range "0" "9")))))) (re.++ (re.union (re.range "A" "H") (re.union (re.range "K" "Y") (re.range "0" "9"))) (re.++ (re.opt (re.union (str.to.re "A") (re.union (str.to.re "E") (re.union (str.to.re "H") (re.union (str.to.re "M") (re.union (str.to.re "N") (re.union (str.to.re "P") (re.union (str.to.re "R") (re.union (str.to.re "T") (re.union (str.to.re "V") (re.union (str.to.re "X") (re.union (str.to.re "Y") (re.range "0" "9"))))))))))))) (re.++ (re.opt (re.union (str.to.re "A") (re.union (str.to.re "B") (re.union (str.to.re "E") (re.union (str.to.re "H") (re.union (str.to.re "M") (re.union (str.to.re "N") (re.union (str.to.re "P") (re.union (str.to.re "R") (re.union (str.to.re "V") (re.union (str.to.re "W") (re.union (str.to.re "X") (re.union (str.to.re "Y") (re.range "0" "9")))))))))))))) (re.++ ((_ re.loop 1 2) (str.to.re " ")) (re.++ (re.range "0" "9") ((_ re.loop 0 2) (re.union (str.to.re "A") (re.union (str.to.re "B") (re.union (re.range "D" "H") (re.union (str.to.re "J") (re.union (str.to.re "L") (re.union (re.range "N" "U") (re.range "W" "Z")))))))))))))) (re.++ (str.to.re "G") (re.++ (str.to.re "I") (re.++ (str.to.re "R") (re.++ (str.to.re " ") (re.++ (str.to.re "0") (re.++ (str.to.re "A") (str.to.re "A")))))))))) re.end-anchor)))	; match!==null
(assert (not (str.in.re ((_ str.extract 1) var0 (re.++ (re.++ re.begin-anchor ((_ re.capture 1) (re.union (re.++ (re.union (re.range "A" "P") (re.union (re.range "R" "U") (re.union (str.to.re "W") (re.union (str.to.re "Y") (re.union (str.to.re "Z") (re.range "0" "9")))))) (re.++ (re.union (re.range "A" "H") (re.union (re.range "K" "Y") (re.range "0" "9"))) (re.++ (re.opt (re.union (str.to.re "A") (re.union (str.to.re "E") (re.union (str.to.re "H") (re.union (str.to.re "M") (re.union (str.to.re "N") (re.union (str.to.re "P") (re.union (str.to.re "R") (re.union (str.to.re "T") (re.union (str.to.re "V") (re.union (str.to.re "X") (re.union (str.to.re "Y") (re.range "0" "9"))))))))))))) (re.++ (re.opt (re.union (str.to.re "A") (re.union (str.to.re "B") (re.union (str.to.re "E") (re.union (str.to.re "H") (re.union (str.to.re "M") (re.union (str.to.re "N") (re.union (str.to.re "P") (re.union (str.to.re "R") (re.union (str.to.re "V") (re.union (str.to.re "W") (re.union (str.to.re "X") (re.union (str.to.re "Y") (re.range "0" "9")))))))))))))) (re.++ ((_ re.loop 1 2) (str.to.re " ")) (re.++ (re.range "0" "9") ((_ re.loop 0 2) (re.union (str.to.re "A") (re.union (str.to.re "B") (re.union (re.range "D" "H") (re.union (str.to.re "J") (re.union (str.to.re "L") (re.union (re.range "N" "U") (re.range "W" "Z")))))))))))))) (re.++ (str.to.re "G") (re.++ (str.to.re "I") (re.++ (str.to.re "R") (re.++ (str.to.re " ") (re.++ (str.to.re "0") (re.++ (str.to.re "A") (str.to.re "A")))))))))) re.end-anchor)) (str.to.re "\x00"))))	
;match[1]!==null
(assert (not (str.in.re ((_ str.extract 1) var0 (re.++ (re.++ re.begin-anchor ((_ re.capture 1) (re.union (re.++ (re.union (re.range "A" "P") (re.union (re.range "R" "U") (re.union (str.to.re "W") (re.union (str.to.re "Y") (re.union (str.to.re "Z") (re.range "0" "9")))))) (re.++ (re.union (re.range "A" "H") (re.union (re.range "K" "Y") (re.range "0" "9"))) (re.++ (re.opt (re.union (str.to.re "A") (re.union (str.to.re "E") (re.union (str.to.re "H") (re.union (str.to.re "M") (re.union (str.to.re "N") (re.union (str.to.re "P") (re.union (str.to.re "R") (re.union (str.to.re "T") (re.union (str.to.re "V") (re.union (str.to.re "X") (re.union (str.to.re "Y") (re.range "0" "9"))))))))))))) (re.++ (re.opt (re.union (str.to.re "A") (re.union (str.to.re "B") (re.union (str.to.re "E") (re.union (str.to.re "H") (re.union (str.to.re "M") (re.union (str.to.re "N") (re.union (str.to.re "P") (re.union (str.to.re "R") (re.union (str.to.re "V") (re.union (str.to.re "W") (re.union (str.to.re "X") (re.union (str.to.re "Y") (re.range "0" "9")))))))))))))) (re.++ ((_ re.loop 1 2) (str.to.re " ")) (re.++ (re.range "0" "9") ((_ re.loop 0 2) (re.union (str.to.re "A") (re.union (str.to.re "B") (re.union (re.range "D" "H") (re.union (str.to.re "J") (re.union (str.to.re "L") (re.union (re.range "N" "U") (re.range "W" "Z")))))))))))))) (re.++ (str.to.re "G") (re.++ (str.to.re "I") (re.++ (str.to.re "R") (re.++ (str.to.re " ") (re.++ (str.to.re "0") (re.++ (str.to.re "A") (str.to.re "A")))))))))) re.end-anchor)) (re.++ re.all(re.+ (re.range "a" "z")) re.all) )))
;/[a-z]+/.test(match[1]) == false	
(check-sat)
(get-model)
(pop 1)
(push 1)
(assert (str.in.re var0 (re.* (re.range "\x01" "\xff"))))
(assert (str.in.re var0 (re.++ (re.++ re.begin-anchor ((_ re.capture 1) (re.union (re.++ (re.union (re.range "A" "P") (re.union (re.range "R" "U") (re.union (str.to.re "W") (re.union (str.to.re "Y") (re.union (str.to.re "Z") (re.range "0" "9")))))) (re.++ (re.union (re.range "A" "H") (re.union (re.range "K" "Y") (re.range "0" "9"))) (re.++ (re.opt (re.union (str.to.re "A") (re.union (str.to.re "E") (re.union (str.to.re "H") (re.union (str.to.re "M") (re.union (str.to.re "N") (re.union (str.to.re "P") (re.union (str.to.re "R") (re.union (str.to.re "T") (re.union (str.to.re "V") (re.union (str.to.re "X") (re.union (str.to.re "Y") (re.range "0" "9"))))))))))))) (re.++ (re.opt (re.union (str.to.re "A") (re.union (str.to.re "B") (re.union (str.to.re "E") (re.union (str.to.re "H") (re.union (str.to.re "M") (re.union (str.to.re "N") (re.union (str.to.re "P") (re.union (str.to.re "R") (re.union (str.to.re "V") (re.union (str.to.re "W") (re.union (str.to.re "X") (re.union (str.to.re "Y") (re.range "0" "9")))))))))))))) (re.++ ((_ re.loop 1 2) (str.to.re " ")) (re.++ (re.range "0" "9") ((_ re.loop 0 2) (re.union (str.to.re "A") (re.union (str.to.re "B") (re.union (re.range "D" "H") (re.union (str.to.re "J") (re.union (str.to.re "L") (re.union (re.range "N" "U") (re.range "W" "Z")))))))))))))) (re.++ (str.to.re "G") (re.++ (str.to.re "I") (re.++ (str.to.re "R") (re.++ (str.to.re " ") (re.++ (str.to.re "0") (re.++ (str.to.re "A") (str.to.re "A")))))))))) re.end-anchor)))	; match!==null
(assert (str.in.re ((_ str.extract 1) var0 (re.++ (re.++ re.begin-anchor ((_ re.capture 1) (re.union (re.++ (re.union (re.range "A" "P") (re.union (re.range "R" "U") (re.union (str.to.re "W") (re.union (str.to.re "Y") (re.union (str.to.re "Z") (re.range "0" "9")))))) (re.++ (re.union (re.range "A" "H") (re.union (re.range "K" "Y") (re.range "0" "9"))) (re.++ (re.opt (re.union (str.to.re "A") (re.union (str.to.re "E") (re.union (str.to.re "H") (re.union (str.to.re "M") (re.union (str.to.re "N") (re.union (str.to.re "P") (re.union (str.to.re "R") (re.union (str.to.re "T") (re.union (str.to.re "V") (re.union (str.to.re "X") (re.union (str.to.re "Y") (re.range "0" "9"))))))))))))) (re.++ (re.opt (re.union (str.to.re "A") (re.union (str.to.re "B") (re.union (str.to.re "E") (re.union (str.to.re "H") (re.union (str.to.re "M") (re.union (str.to.re "N") (re.union (str.to.re "P") (re.union (str.to.re "R") (re.union (str.to.re "V") (re.union (str.to.re "W") (re.union (str.to.re "X") (re.union (str.to.re "Y") (re.range "0" "9")))))))))))))) (re.++ ((_ re.loop 1 2) (str.to.re " ")) (re.++ (re.range "0" "9") ((_ re.loop 0 2) (re.union (str.to.re "A") (re.union (str.to.re "B") (re.union (re.range "D" "H") (re.union (str.to.re "J") (re.union (str.to.re "L") (re.union (re.range "N" "U") (re.range "W" "Z")))))))))))))) (re.++ (str.to.re "G") (re.++ (str.to.re "I") (re.++ (str.to.re "R") (re.++ (str.to.re " ") (re.++ (str.to.re "0") (re.++ (str.to.re "A") (str.to.re "A")))))))))) re.end-anchor)) (str.to.re "\x00")))
;match[1]==null
(check-sat)
(get-model)
(pop 1)
(push 1)
(assert (str.in.re var0 (re.* (re.range "\x01" "\xff"))))
(assert (not (str.in.re var0 (re.++ (re.++ re.begin-anchor ((_ re.capture 1) (re.union (re.++ (re.union (re.range "A" "P") (re.union (re.range "R" "U") (re.union (str.to.re "W") (re.union (str.to.re "Y") (re.union (str.to.re "Z") (re.range "0" "9")))))) (re.++ (re.union (re.range "A" "H") (re.union (re.range "K" "Y") (re.range "0" "9"))) (re.++ (re.opt (re.union (str.to.re "A") (re.union (str.to.re "E") (re.union (str.to.re "H") (re.union (str.to.re "M") (re.union (str.to.re "N") (re.union (str.to.re "P") (re.union (str.to.re "R") (re.union (str.to.re "T") (re.union (str.to.re "V") (re.union (str.to.re "X") (re.union (str.to.re "Y") (re.range "0" "9"))))))))))))) (re.++ (re.opt (re.union (str.to.re "A") (re.union (str.to.re "B") (re.union (str.to.re "E") (re.union (str.to.re "H") (re.union (str.to.re "M") (re.union (str.to.re "N") (re.union (str.to.re "P") (re.union (str.to.re "R") (re.union (str.to.re "V") (re.union (str.to.re "W") (re.union (str.to.re "X") (re.union (str.to.re "Y") (re.range "0" "9")))))))))))))) (re.++ ((_ re.loop 1 2) (str.to.re " ")) (re.++ (re.range "0" "9") ((_ re.loop 0 2) (re.union (str.to.re "A") (re.union (str.to.re "B") (re.union (re.range "D" "H") (re.union (str.to.re "J") (re.union (str.to.re "L") (re.union (re.range "N" "U") (re.range "W" "Z")))))))))))))) (re.++ (str.to.re "G") (re.++ (str.to.re "I") (re.++ (str.to.re "R") (re.++ (str.to.re " ") (re.++ (str.to.re "0") (re.++ (str.to.re "A") (str.to.re "A")))))))))) re.end-anchor))))	; match == null
(check-sat)
(get-model)
(pop 1)
(exit)
